
;this file is automatically generated: Thu Jan 02 16:54:47 GMT 2020

;declarations generated

(declare-fun oclExcludes ( Int Int) Bool)
(declare-fun type_75427ece_6ff8_4a20_947b_787c32f378c8_Class23 ( Int) Bool)
(declare-fun Cardinality ( Int) Int)
(declare-fun obj_381e9930_b4d1_40b7_8a57_00ce2de102c4 ( Int) Int)
(declare-fun oclSelect ( Int Bool) Int)
(declare-fun class23_Class23IntAttr3 ( Int) Int)
(declare-fun Enum0 ( Int) Int)
(declare-fun Enum1 ( Int) Int)
(declare-fun Enum2 ( Int) Int)
(declare-fun container_ ( Int) Int)
(declare-fun oclIncludes ( Int Int) Bool)
(declare-fun ObjAt ( Int Int) Int)

;formula(s) generated
(assert (! (forall ((v Int)) (=> ( type_75427ece_6ff8_4a20_947b_787c32f378c8_Class23 v )  (<= ( class23_Class23IntAttr3 ( obj_381e9930_b4d1_40b7_8a57_00ce2de102c4 v )  )  17))):named l0))
(assert (exists ((o Int)) ( type_75427ece_6ff8_4a20_947b_787c32f378c8_Class23 ( obj_381e9930_b4d1_40b7_8a57_00ce2de102c4 o )  ) ))

 ;end of formula 